10 6 15 4 18 14 11 7 9 8 19 16 5 2 0 13 12 17 1 3  
10 6 15 4 18 14 11 7 8 17 12 9 19 13 16 5 0 1 3 2  
10 6 15 4 18 14 11 7 8 17 12 9 19 13 16 5 2 0 1 3  
10 6 15 4 18 14 11 17 8 16 9 19 12 0 5 2 13 7 1 3  
10 6 4 15 18 14 11 7 8 17 12 9 19 0 3 13 16 5 2 1  
10 4 15 18 14 6 11 7 8 5 9 19 2 16 0 13 12 17 1 3  
10 6 15 4 18 14 11 7 8 17 12 9 19 5 13 0 1 2 16 3  
10 6 15 4 18 14 11 17 8 16 9 19 12 0 5 2 13 7 3 1  
10 6 15 4 18 14 11 7 8 17 12 5 9 19 2 1 0 13 16 3  
10 6 15 4 18 14 11 7 8 17 12 9 19 1 0 13 16 5 2 3  
10 6 15 4 14 18 11 7 8 17 12 9 19 13 16 5 0 1 2 3  
10 6 15 4 18 14 11 7 8 17 12 9 19 3 0 13 16 5 2 1  
10 6 15 4 18 14 11 7 8 5 9 19 13 12 0 2 17 1 16 3  
10 6 15 4 18 14 11 7 8 17 12 9 19 13 16 5 2 0 1 3  
10 6 15 4 18 14 11 7 8 17 12 9 19 3 0 13 16 5 2 1  
10 6 15 4 18 14 11 8 16 5 9 13 12 17 1 0 2 7 3 19  
10 6 15 4 18 14 11 7 8 5 9 19 2 16 0 13 12 17 1 3  
10 6 15 4 18 14 11 7 8 17 12 9 19 5 2 13 0 16 1 3  
10 6 15 4 18 14 11 17 8 16 9 19 12 0 5 2 13 7 1 3  
10 6 15 4 11 14 18 8 16 5 9 13 12 17 1 0 2 7 3 19  
10 6 15 4 18 14 11 17 8 12 5 9 19 13 16 3 0 2 7 1  
10 6 15 4 14 18 11 0 8 17 12 9 19 13 16 5 7 2 3 1  
